n_res = 4;
rc = [ 12, 14, 13, 22 ];
n_tasks = 30;
d = [ 1, 7, 9, 6, 8, 7, 9, 10, 8, 4, 8, 9, 8, 3, 4, 1, 8, 1, 10, 9, 6, 3, 9, 4, 8, 1, 2, 4, 5, 8 ];
rr = [| 0, 0, 6, 0, 7, 0, 0, 2, 0, 0, 0, 0, 0, 7, 0, 0, 0, 0, 3, 0, 0, 0, 0, 0, 0, 6, 0, 0, 0, 10
      | 0, 0, 0, 0, 0, 7, 5, 0, 10, 0, 0, 0, 0, 0, 0, 0, 4, 8, 0, 0, 0, 0, 0, 0, 0, 0, 5, 1, 0, 0
      | 0, 3, 0, 0, 0, 0, 0, 0, 0, 5, 3, 10, 0, 0, 0, 0, 0, 0, 0, 1, 8, 9, 0, 0, 2, 0, 0, 0, 0, 0
      | 10, 0, 0, 7, 0, 0, 0, 0, 0, 0, 0, 0, 10, 0, 1, 9, 0, 0, 0, 0, 0, 0, 8, 9, 0, 0, 0, 0, 7, 0 |];
suc = [ { 2 }, 
        { 3 }, 
        { 4 }, 
        { 5 }, 
        { 6 }, 
        { 7 }, 
        { 8 }, 
        { 9 }, 
        { 10 }, 
        { 11 }, 
        { 12 }, 
        { 13 }, 
        { 14 }, 
        { 15 }, 
        { 16 }, 
        { 17 }, 
        { 18 }, 
        { 19 }, 
        { 20 }, 
        { 21 }, 
        { 22 }, 
        { 23 }, 
        { 24 }, 
        { 25 }, 
        { 26 }, 
        { 27 }, 
        { 28 }, 
        { 29 }, 
        { 30 }, 
        {  }]; 
